(set-info :smt-lib-version 2.6)
(set-logic QF_S)
(set-info :source |
Generated by: Murphy Berzish, Mitja Kulczynski, Federico Mora, Florin Manea, Joel Day, Dirk Nowotka, Vijay Ganesh, Zhengyang Lu
Generated on: 2020-10-01
Description: Translated from a collection of real-world regex queries, AutomataArk, collected by Loris D’Antoni and Fang Wang: https://github.com/lorisdanto/automatark
Application: Evaluate solvers on real-world regex queries
Target solver: Z3str3RE, CVC4, OSTRICH, Z3seq, Z3str3, Z3-Trau
Publications: Berzish, M., Kulczynski, M., Mora, F., Manea, F., Day, J. D., Nowotka, D., & Ganesh, V. (2021, July). An SMT solver for regular expressions and linear arithmetic over string length. In CAV 2021.
|)
(set-info :license "https://creativecommons.org/licenses/by/4.0/")
(set-info :category "industrial")
(set-info :status unsat)

(declare-const X String)
(assert (str.in_re X (re.++ (str.to_re "<") (re.union (str.to_re "i") (str.to_re "I")) (re.union (str.to_re "f") (str.to_re "F")) (re.union (str.to_re "r") (str.to_re "R")) (re.union (str.to_re "a") (str.to_re "A")) (re.union (str.to_re "m") (str.to_re "M")) (re.union (str.to_re "e") (str.to_re "E")) (str.to_re "\u{a}") (re.* (re.comp (str.to_re ">"))) (re.* (re.union (str.to_re "/") (str.to_re ">"))) (re.* (re.union (str.to_re "/") (str.to_re ">"))) (str.to_re ">"))))
(assert (str.in_re X (re.++ (re.union (re.++ ((_ re.loop 1 6) (re.range "0" "9")) (str.to_re "-") ((_ re.loop 1 6) (re.range "0" "9"))) (re.++ ((_ re.loop 1 6) (re.range "0" "9")) (str.to_re "\u{5c}") ((_ re.loop 1 6) (re.range "0" "9"))) (re.++ ((_ re.loop 1 6) (re.range "0" "9")) (str.to_re "/") ((_ re.loop 1 6) (re.range "0" "9"))) (re.++ ((_ re.loop 1 1) (re.union (re.range "0" "9") (re.range "A" "Z") (re.range "a" "z") (str.to_re "_"))) (re.opt (str.to_re "-")) ((_ re.loop 1 6) (re.range "0" "9"))) (re.++ ((_ re.loop 1 1) (re.union (re.range "0" "9") (re.range "A" "Z") (re.range "a" "z") (str.to_re "_"))) (re.union (str.to_re " ") (str.to_re "\u{9}") (str.to_re "\u{a}") (str.to_re "\u{c}") (str.to_re "\u{d}")) ((_ re.loop 1 6) (re.range "0" "9"))) (re.++ (re.union (str.to_re "BOX") (str.to_re "Box")) (str.to_re "P") (re.opt (str.to_re ".")) (str.to_re "O") (re.opt (str.to_re ".")) (re.union (str.to_re " ") (str.to_re "\u{9}") (str.to_re "\u{a}") (str.to_re "\u{c}") (str.to_re "\u{d}")) (re.union (str.to_re " ") (str.to_re "\u{9}") (str.to_re "\u{a}") (str.to_re "\u{c}") (str.to_re "\u{d}")) ((_ re.loop 1 6) (re.range "0" "9"))) (re.opt (re.++ (re.union ((_ re.loop 2 2) (str.to_re "R")) (str.to_re "HC")) (re.union (str.to_re "BOX") (str.to_re "Box")) (re.union (str.to_re " ") (str.to_re "\u{9}") (str.to_re "\u{a}") (str.to_re "\u{c}") (str.to_re "\u{d}")) ((_ re.loop 1 6) (re.range "0" "9")) (re.union (str.to_re " ") (str.to_re "\u{9}") (str.to_re "\u{a}") (str.to_re "\u{c}") (str.to_re "\u{d}")) (re.union (str.to_re " ") (str.to_re "\u{9}") (str.to_re "\u{a}") (str.to_re "\u{c}") (str.to_re "\u{d}")) ((_ re.loop 1 6) (re.range "0" "9"))))) (str.to_re "\u{a}"))))
(assert (str.in_re X (re.++ (str.to_re "/") ((_ re.loop 1 2) (re.range "0" "9")) (str.to_re "/") ((_ re.loop 1 2) (re.range "0" "9")) (str.to_re "/") ((_ re.loop 4 4) (re.range "0" "9")) (re.union (str.to_re "T") ((_ re.loop 1 2) (re.union (str.to_re " ") (str.to_re "\u{9}") (str.to_re "\u{a}") (str.to_re "\u{c}") (str.to_re "\u{d}")))) (re.union (re.++ (re.range "0" "1") (re.range "0" "9")) (re.++ (str.to_re "2") (re.range "0" "3"))) (str.to_re ":") (re.+ (re.++ (re.range "0" "5") (re.range "0" "9"))) (str.to_re "/;\u{a}"))))
(assert (str.in_re X (re.++ (str.to_re "uuid=") (re.+ (re.union (str.to_re " ") (str.to_re "\u{9}") (str.to_re "\u{a}") (str.to_re "\u{c}") (str.to_re "\u{d}"))) (str.to_re "User-Agent:") (re.+ (re.range "0" "9")) (str.to_re "\u{5c}home/lordofsearch\u{a}"))))
(check-sat)

(exit)
